# Solution for model Model5
# Objective value = 215
y[0,0,2] 0
y[0,0,3] 0
y[0,0,4] 1
y[0,1,1] 0
y[0,1,4] 0
y[0,1,6] 1
y[0,2,0] 0
y[0,2,1] 0
y[0,2,2] 1
y[0,3,2] 0
y[0,3,4] 0
y[0,3,6] 1
y[1,0,1] 1
y[1,0,4] 0
y[1,0,5] 0
y[1,1,0] 0
y[1,1,2] 0
y[1,1,5] 1
y[1,2,2] 0
y[1,2,5] 0
y[1,2,6] 1
y[1,3,0] 1
y[1,3,3] 0
y[1,3,4] 0
y[2,0,2] 0
y[2,0,3] 1
y[2,0,6] 0
y[2,1,1] 0
y[2,1,4] 1
y[2,1,5] 0
y[2,2,3] 1
y[2,2,4] 0
y[2,2,5] 0
y[2,3,2] 1
y[2,3,4] 0
y[2,3,6] 0
y[3,0,0] 1
y[3,0,4] 0
y[3,0,6] 0
y[3,1,0] 0
y[3,1,3] 0
y[3,1,5] 1
y[3,2,0] 0
y[3,2,5] 0
y[3,2,6] 1
y[3,3,2] 0
y[3,3,3] 0
y[3,3,4] 1
y[4,0,1] 0
y[4,0,2] 0
y[4,0,5] 1
y[4,1,0] 1
y[4,1,1] 0
y[4,1,5] 0
y[4,2,1] 1
y[4,2,4] 0
y[4,2,5] 0
y[4,3,1] 1
y[4,3,4] 0
y[4,3,6] 0
y[5,0,0] 0
y[5,0,3] 1
y[5,0,5] 0
y[5,1,2] 0
y[5,1,3] 1
y[5,1,4] 0
y[5,2,0] 1
y[5,2,2] 0
y[5,2,4] 0
y[5,3,0] 1
y[5,3,2] 0
y[5,3,5] 0
y[6,0,2] 1
y[6,0,4] 0
y[6,0,6] 0
y[6,1,1] 1
y[6,1,4] 0
y[6,1,5] 0
y[6,2,2] 0
y[6,2,3] 0
y[6,2,4] 1
y[6,3,0] 0
y[6,3,3] 1
y[6,3,4] 0
y[7,0,1] 0
y[7,0,2] 1
y[7,0,4] 0
y[7,1,1] 0
y[7,1,2] 0
y[7,1,5] 1
y[7,2,0] 1
y[7,2,1] 0
y[7,2,6] 0
y[7,3,2] 0
y[7,3,4] 1
y[7,3,5] 0
x[0,0,0,0] 0
x[0,0,0,1] 1
x[0,0,0,2] 1
x[0,0,0,3] 1
x[0,0,1,0] 0
x[0,0,1,1] 0
x[0,0,1,2] 1
x[0,0,1,3] 0
x[0,0,2,0] 0
x[0,0,2,1] 1
x[0,0,2,2] 1
x[0,0,2,3] 0
x[0,0,3,0] 0
x[0,0,3,1] 0
x[0,0,3,2] 0
x[0,0,3,3] 1
x[0,0,4,0] 0
x[0,0,4,1] 0
x[0,0,4,2] 0
x[0,0,4,3] 1
x[0,0,5,0] 1
x[0,0,5,1] 0
x[0,0,5,2] 0
x[0,0,5,3] 0
x[0,0,6,0] 0
x[0,0,6,1] 1
x[0,0,6,2] 1
x[0,0,6,3] 0
x[0,0,7,0] 0
x[0,0,7,1] 0
x[0,0,7,2] 0
x[0,0,7,3] 1
x[0,1,0,0] 0
x[0,1,0,1] 0
x[0,1,0,2] 0
x[0,1,0,3] 1
x[0,1,1,0] 1
x[0,1,1,1] 0
x[0,1,1,2] 1
x[0,1,1,3] 0
x[0,1,2,0] 1
x[0,1,2,1] 0
x[0,1,2,2] 0
x[0,1,2,3] 0
x[0,1,3,0] 1
x[0,1,3,1] 0
x[0,1,3,2] 1
x[0,1,3,3] 0
x[0,1,4,0] 0
x[0,1,4,1] 0
x[0,1,4,2] 0
x[0,1,4,3] 1
x[0,1,5,0] 0
x[0,1,5,1] 0
x[0,1,5,2] 0
x[0,1,5,3] 0
x[0,1,6,0] 0
x[0,1,6,1] 0
x[0,1,6,2] 0
x[0,1,6,3] 1
x[0,1,7,0] 1
x[0,1,7,1] 1
x[0,1,7,2] 0
x[0,1,7,3] 0
x[0,2,0,0] 0
x[0,2,0,1] 1
x[0,2,0,2] 0
x[0,2,0,3] 0
x[0,2,1,0] 0
x[0,2,1,1] 1
x[0,2,1,2] 1
x[0,2,1,3] 1
x[0,2,2,0] 1
x[0,2,2,1] 0
x[0,2,2,2] 0
x[0,2,2,3] 1
x[0,2,3,0] 0
x[0,2,3,1] 0
x[0,2,3,2] 0
x[0,2,3,3] 0
x[0,2,4,0] 0
x[0,2,4,1] 0
x[0,2,4,2] 1
x[0,2,4,3] 1
x[0,2,5,0] 1
x[0,2,5,1] 0
x[0,2,5,2] 0
x[0,2,5,3] 1
x[0,2,6,0] 1
x[0,2,6,1] 0
x[0,2,6,2] 0
x[0,2,6,3] 1
x[0,2,7,0] 0
x[0,2,7,1] 1
x[0,2,7,2] 1
x[0,2,7,3] 1
x[0,3,0,0] 0
x[0,3,0,1] 0
x[0,3,0,2] 1
x[0,3,0,3] 0
x[0,3,1,0] 0
x[0,3,1,1] 1
x[0,3,1,2] 1
x[0,3,1,3] 0
x[0,3,2,0] 0
x[0,3,2,1] 0
x[0,3,2,2] 0
x[0,3,2,3] 0
x[0,3,3,0] 0
x[0,3,3,1] 0
x[0,3,3,2] 0
x[0,3,3,3] 0
x[0,3,4,0] 1
x[0,3,4,1] 0
x[0,3,4,2] 0
x[0,3,4,3] 0
x[0,3,5,0] 0
x[0,3,5,1] 0
x[0,3,5,2] 0
x[0,3,5,3] 0
x[0,3,6,0] 0
x[0,3,6,1] 0
x[0,3,6,2] 0
x[0,3,6,3] 0
x[0,3,7,0] 0
x[0,3,7,1] 0
x[0,3,7,2] 0
x[0,3,7,3] 1
x[1,0,0,0] 0
x[1,0,0,1] 0
x[1,0,0,2] 0
x[1,0,0,3] 0
x[1,0,1,0] 0
x[1,0,1,1] 0
x[1,0,1,2] 0
x[1,0,1,3] 0
x[1,0,2,0] 0
x[1,0,2,1] 0
x[1,0,2,2] 1
x[1,0,2,3] 0
x[1,0,3,0] 0
x[1,0,3,1] 1
x[1,0,3,2] 1
x[1,0,3,3] 0
x[1,0,4,0] 1
x[1,0,4,1] 0
x[1,0,4,2] 1
x[1,0,4,3] 1
x[1,0,5,0] 0
x[1,0,5,1] 0
x[1,0,5,2] 0
x[1,0,5,3] 0
x[1,0,6,0] 0
x[1,0,6,1] 1
x[1,0,6,2] 0
x[1,0,6,3] 0
x[1,0,7,0] 0
x[1,0,7,1] 0
x[1,0,7,2] 0
x[1,0,7,3] 0
x[1,1,0,0] 0
x[1,1,0,1] 0
x[1,1,0,2] 0
x[1,1,0,3] 0
x[1,1,1,0] 1
x[1,1,1,1] 0
x[1,1,1,2] 0
x[1,1,1,3] 0
x[1,1,2,0] 0
x[1,1,2,1] 0
x[1,1,2,2] 1
x[1,1,2,3] 1
x[1,1,3,0] 1
x[1,1,3,1] 0
x[1,1,3,2] 0
x[1,1,3,3] 1
x[1,1,4,0] 0
x[1,1,4,1] 1
x[1,1,4,2] 0
x[1,1,4,3] 0
x[1,1,5,0] 1
x[1,1,5,1] 0
x[1,1,5,2] 1
x[1,1,5,3] 0
x[1,1,6,0] 1
x[1,1,6,1] 0
x[1,1,6,2] 0
x[1,1,6,3] 0
x[1,1,7,0] 0
x[1,1,7,1] 0
x[1,1,7,2] 1
x[1,1,7,3] 0
x[1,2,0,0] 0
x[1,2,0,1] 0
x[1,2,0,2] 0
x[1,2,0,3] 0
x[1,2,1,0] 1
x[1,2,1,1] 1
x[1,2,1,2] 0
x[1,2,1,3] 0
x[1,2,2,0] 0
x[1,2,2,1] 1
x[1,2,2,2] 1
x[1,2,2,3] 0
x[1,2,3,0] 0
x[1,2,3,1] 1
x[1,2,3,2] 0
x[1,2,3,3] 0
x[1,2,4,0] 0
x[1,2,4,1] 0
x[1,2,4,2] 0
x[1,2,4,3] 0
x[1,2,5,0] 0
x[1,2,5,1] 0
x[1,2,5,2] 0
x[1,2,5,3] 0
x[1,2,6,0] 1
x[1,2,6,1] 1
x[1,2,6,2] 0
x[1,2,6,3] 0
x[1,2,7,0] 0
x[1,2,7,1] 1
x[1,2,7,2] 0
x[1,2,7,3] 0
x[1,3,0,0] 0
x[1,3,0,1] 0
x[1,3,0,2] 0
x[1,3,0,3] 0
x[1,3,1,0] 1
x[1,3,1,1] 1
x[1,3,1,2] 0
x[1,3,1,3] 0
x[1,3,2,0] 0
x[1,3,2,1] 1
x[1,3,2,2] 0
x[1,3,2,3] 0
x[1,3,3,0] 0
x[1,3,3,1] 0
x[1,3,3,2] 1
x[1,3,3,3] 0
x[1,3,4,0] 0
x[1,3,4,1] 1
x[1,3,4,2] 0
x[1,3,4,3] 0
x[1,3,5,0] 0
x[1,3,5,1] 0
x[1,3,5,2] 0
x[1,3,5,3] 0
x[1,3,6,0] 0
x[1,3,6,1] 1
x[1,3,6,2] 0
x[1,3,6,3] 0
x[1,3,7,0] 0
x[1,3,7,1] 0
x[1,3,7,2] 1
x[1,3,7,3] 1
x[2,0,0,0] 0
x[2,0,0,1] 0
x[2,0,0,2] 0
x[2,0,0,3] 0
x[2,0,1,0] 0
x[2,0,1,1] 0
x[2,0,1,2] 0
x[2,0,1,3] 0
x[2,0,2,0] 0
x[2,0,2,1] 0
x[2,0,2,2] 1
x[2,0,2,3] 1
x[2,0,3,0] 0
x[2,0,3,1] 1
x[2,0,3,2] 0
x[2,0,3,3] 1
x[2,0,4,0] 0
x[2,0,4,1] 0
x[2,0,4,2] 0
x[2,0,4,3] 0
x[2,0,5,0] 0
x[2,0,5,1] 0
x[2,0,5,2] 0
x[2,0,5,3] 0
x[2,0,6,0] 0
x[2,0,6,1] 0
x[2,0,6,2] 1
x[2,0,6,3] 1
x[2,0,7,0] 0
x[2,0,7,1] 0
x[2,0,7,2] 0
x[2,0,7,3] 1
x[2,1,0,0] 0
x[2,1,0,1] 0
x[2,1,0,2] 0
x[2,1,0,3] 0
x[2,1,1,0] 0
x[2,1,1,1] 0
x[2,1,1,2] 0
x[2,1,1,3] 0
x[2,1,2,0] 0
x[2,1,2,1] 0
x[2,1,2,2] 0
x[2,1,2,3] 0
x[2,1,3,0] 1
x[2,1,3,1] 1
x[2,1,3,2] 0
x[2,1,3,3] 1
x[2,1,4,0] 0
x[2,1,4,1] 0
x[2,1,4,2] 0
x[2,1,4,3] 0
x[2,1,5,0] 0
x[2,1,5,1] 0
x[2,1,5,2] 0
x[2,1,5,3] 0
x[2,1,6,0] 0
x[2,1,6,1] 1
x[2,1,6,2] 1
x[2,1,6,3] 0
x[2,1,7,0] 0
x[2,1,7,1] 0
x[2,1,7,2] 0
x[2,1,7,3] 0
x[2,2,0,0] 0
x[2,2,0,1] 0
x[2,2,0,2] 0
x[2,2,0,3] 0
x[2,2,1,0] 0
x[2,2,1,1] 0
x[2,2,1,2] 0
x[2,2,1,3] 0
x[2,2,2,0] 0
x[2,2,2,1] 1
x[2,2,2,2] 0
x[2,2,2,3] 0
x[2,2,3,0] 0
x[2,2,3,1] 0
x[2,2,3,2] 0
x[2,2,3,3] 0
x[2,2,4,0] 0
x[2,2,4,1] 1
x[2,2,4,2] 1
x[2,2,4,3] 0
x[2,2,5,0] 0
x[2,2,5,1] 0
x[2,2,5,2] 0
x[2,2,5,3] 0
x[2,2,6,0] 0
x[2,2,6,1] 1
x[2,2,6,2] 0
x[2,2,6,3] 1
x[2,2,7,0] 0
x[2,2,7,1] 0
x[2,2,7,2] 0
x[2,2,7,3] 1
x[2,3,0,0] 0
x[2,3,0,1] 0
x[2,3,0,2] 0
x[2,3,0,3] 0
x[2,3,1,0] 0
x[2,3,1,1] 0
x[2,3,1,2] 0
x[2,3,1,3] 0
x[2,3,2,0] 0
x[2,3,2,1] 1
x[2,3,2,2] 1
x[2,3,2,3] 0
x[2,3,3,0] 0
x[2,3,3,1] 0
x[2,3,3,2] 1
x[2,3,3,3] 1
x[2,3,4,0] 0
x[2,3,4,1] 0
x[2,3,4,2] 1
x[2,3,4,3] 0
x[2,3,5,0] 0
x[2,3,5,1] 0
x[2,3,5,2] 1
x[2,3,5,3] 0
x[2,3,6,0] 0
x[2,3,6,1] 1
x[2,3,6,2] 0
x[2,3,6,3] 0
x[2,3,7,0] 0
x[2,3,7,1] 1
x[2,3,7,2] 1
x[2,3,7,3] 0
x[3,0,0,0] 0
x[3,0,0,1] 0
x[3,0,0,2] 0
x[3,0,0,3] 0
x[3,0,1,0] 0
x[3,0,1,1] 0
x[3,0,1,2] 0
x[3,0,1,3] 0
x[3,0,2,0] 0
x[3,0,2,1] 0
x[3,0,2,2] 0
x[3,0,2,3] 0
x[3,0,3,0] 0
x[3,0,3,1] 0
x[3,0,3,2] 0
x[3,0,3,3] 1
x[3,0,4,0] 0
x[3,0,4,1] 1
x[3,0,4,2] 0
x[3,0,4,3] 0
x[3,0,5,0] 1
x[3,0,5,1] 0
x[3,0,5,2] 0
x[3,0,5,3] 0
x[3,0,6,0] 0
x[3,0,6,1] 1
x[3,0,6,2] 0
x[3,0,6,3] 1
x[3,0,7,0] 0
x[3,0,7,1] 0
x[3,0,7,2] 1
x[3,0,7,3] 0
x[3,1,0,0] 0
x[3,1,0,1] 0
x[3,1,0,2] 0
x[3,1,0,3] 0
x[3,1,1,0] 0
x[3,1,1,1] 0
x[3,1,1,2] 0
x[3,1,1,3] 0
x[3,1,2,0] 0
x[3,1,2,1] 0
x[3,1,2,2] 0
x[3,1,2,3] 0
x[3,1,3,0] 1
x[3,1,3,1] 0
x[3,1,3,2] 1
x[3,1,3,3] 0
x[3,1,4,0] 0
x[3,1,4,1] 0
x[3,1,4,2] 1
x[3,1,4,3] 0
x[3,1,5,0] 0
x[3,1,5,1] 0
x[3,1,5,2] 0
x[3,1,5,3] 0
x[3,1,6,0] 0
x[3,1,6,1] 0
x[3,1,6,2] 1
x[3,1,6,3] 0
x[3,1,7,0] 0
x[3,1,7,1] 0
x[3,1,7,2] 0
x[3,1,7,3] 1
x[3,2,0,0] 0
x[3,2,0,1] 0
x[3,2,0,2] 0
x[3,2,0,3] 0
x[3,2,1,0] 0
x[3,2,1,1] 0
x[3,2,1,2] 0
x[3,2,1,3] 0
x[3,2,2,0] 0
x[3,2,2,1] 0
x[3,2,2,2] 0
x[3,2,2,3] 0
x[3,2,3,0] 1
x[3,2,3,1] 0
x[3,2,3,2] 0
x[3,2,3,3] 0
x[3,2,4,0] 0
x[3,2,4,1] 0
x[3,2,4,2] 1
x[3,2,4,3] 0
x[3,2,5,0] 0
x[3,2,5,1] 0
x[3,2,5,2] 0
x[3,2,5,3] 0
x[3,2,6,0] 0
x[3,2,6,1] 1
x[3,2,6,2] 0
x[3,2,6,3] 1
x[3,2,7,0] 0
x[3,2,7,1] 0
x[3,2,7,2] 0
x[3,2,7,3] 0
x[3,3,0,0] 0
x[3,3,0,1] 0
x[3,3,0,2] 0
x[3,3,0,3] 0
x[3,3,1,0] 0
x[3,3,1,1] 0
x[3,3,1,2] 0
x[3,3,1,3] 0
x[3,3,2,0] 0
x[3,3,2,1] 0
x[3,3,2,2] 0
x[3,3,2,3] 0
x[3,3,3,0] 0
x[3,3,3,1] 1
x[3,3,3,2] 0
x[3,3,3,3] 0
x[3,3,4,0] 0
x[3,3,4,1] 0
x[3,3,4,2] 0
x[3,3,4,3] 0
x[3,3,5,0] 1
x[3,3,5,1] 1
x[3,3,5,2] 0
x[3,3,5,3] 0
x[3,3,6,0] 1
x[3,3,6,1] 1
x[3,3,6,2] 1
x[3,3,6,3] 0
x[3,3,7,0] 1
x[3,3,7,1] 0
x[3,3,7,2] 0
x[3,3,7,3] 0
x[4,0,0,0] 0
x[4,0,0,1] 0
x[4,0,0,2] 0
x[4,0,0,3] 0
x[4,0,1,0] 0
x[4,0,1,1] 0
x[4,0,1,2] 0
x[4,0,1,3] 0
x[4,0,2,0] 0
x[4,0,2,1] 0
x[4,0,2,2] 0
x[4,0,2,3] 0
x[4,0,3,0] 0
x[4,0,3,1] 0
x[4,0,3,2] 0
x[4,0,3,3] 0
x[4,0,4,0] 0
x[4,0,4,1] 0
x[4,0,4,2] 0
x[4,0,4,3] 0
x[4,0,5,0] 0
x[4,0,5,1] 0
x[4,0,5,2] 0
x[4,0,5,3] 0
x[4,0,6,0] 0
x[4,0,6,1] 1
x[4,0,6,2] 0
x[4,0,6,3] 0
x[4,0,7,0] 1
x[4,0,7,1] 0
x[4,0,7,2] 1
x[4,0,7,3] 0
x[4,1,0,0] 0
x[4,1,0,1] 0
x[4,1,0,2] 0
x[4,1,0,3] 0
x[4,1,1,0] 0
x[4,1,1,1] 0
x[4,1,1,2] 0
x[4,1,1,3] 0
x[4,1,2,0] 0
x[4,1,2,1] 0
x[4,1,2,2] 0
x[4,1,2,3] 0
x[4,1,3,0] 0
x[4,1,3,1] 0
x[4,1,3,2] 0
x[4,1,3,3] 0
x[4,1,4,0] 1
x[4,1,4,1] 0
x[4,1,4,2] 0
x[4,1,4,3] 1
x[4,1,5,0] 0
x[4,1,5,1] 0
x[4,1,5,2] 0
x[4,1,5,3] 0
x[4,1,6,0] 0
x[4,1,6,1] 1
x[4,1,6,2] 0
x[4,1,6,3] 1
x[4,1,7,0] 1
x[4,1,7,1] 1
x[4,1,7,2] 0
x[4,1,7,3] 1
x[4,2,0,0] 0
x[4,2,0,1] 0
x[4,2,0,2] 0
x[4,2,0,3] 0
x[4,2,1,0] 0
x[4,2,1,1] 0
x[4,2,1,2] 0
x[4,2,1,3] 0
x[4,2,2,0] 0
x[4,2,2,1] 0
x[4,2,2,2] 0
x[4,2,2,3] 0
x[4,2,3,0] 0
x[4,2,3,1] 0
x[4,2,3,2] 0
x[4,2,3,3] 0
x[4,2,4,0] 1
x[4,2,4,1] 1
x[4,2,4,2] 0
x[4,2,4,3] 1
x[4,2,5,0] 0
x[4,2,5,1] 1
x[4,2,5,2] 0
x[4,2,5,3] 0
x[4,2,6,0] 0
x[4,2,6,1] 1
x[4,2,6,2] 1
x[4,2,6,3] 0
x[4,2,7,0] 1
x[4,2,7,1] 0
x[4,2,7,2] 0
x[4,2,7,3] 0
x[4,3,0,0] 0
x[4,3,0,1] 0
x[4,3,0,2] 0
x[4,3,0,3] 0
x[4,3,1,0] 0
x[4,3,1,1] 0
x[4,3,1,2] 0
x[4,3,1,3] 0
x[4,3,2,0] 0
x[4,3,2,1] 0
x[4,3,2,2] 0
x[4,3,2,3] 0
x[4,3,3,0] 0
x[4,3,3,1] 0
x[4,3,3,2] 0
x[4,3,3,3] 0
x[4,3,4,0] 1
x[4,3,4,1] 0
x[4,3,4,2] 0
x[4,3,4,3] 0
x[4,3,5,0] 0
x[4,3,5,1] 1
x[4,3,5,2] 0
x[4,3,5,3] 0
x[4,3,6,0] 0
x[4,3,6,1] 0
x[4,3,6,2] 1
x[4,3,6,3] 0
x[4,3,7,0] 0
x[4,3,7,1] 0
x[4,3,7,2] 0
x[4,3,7,3] 1
x[5,0,0,0] 0
x[5,0,0,1] 0
x[5,0,0,2] 0
x[5,0,0,3] 0
x[5,0,1,0] 0
x[5,0,1,1] 0
x[5,0,1,2] 0
x[5,0,1,3] 0
x[5,0,2,0] 0
x[5,0,2,1] 0
x[5,0,2,2] 0
x[5,0,2,3] 0
x[5,0,3,0] 0
x[5,0,3,1] 0
x[5,0,3,2] 0
x[5,0,3,3] 0
x[5,0,4,0] 0
x[5,0,4,1] 0
x[5,0,4,2] 0
x[5,0,4,3] 0
x[5,0,5,0] 0
x[5,0,5,1] 1
x[5,0,5,2] 1
x[5,0,5,3] 1
x[5,0,6,0] 0
x[5,0,6,1] 0
x[5,0,6,2] 0
x[5,0,6,3] 1
x[5,0,7,0] 0
x[5,0,7,1] 0
x[5,0,7,2] 0
x[5,0,7,3] 0
x[5,1,0,0] 0
x[5,1,0,1] 0
x[5,1,0,2] 0
x[5,1,0,3] 0
x[5,1,1,0] 0
x[5,1,1,1] 0
x[5,1,1,2] 0
x[5,1,1,3] 0
x[5,1,2,0] 0
x[5,1,2,1] 0
x[5,1,2,2] 0
x[5,1,2,3] 0
x[5,1,3,0] 0
x[5,1,3,1] 0
x[5,1,3,2] 0
x[5,1,3,3] 0
x[5,1,4,0] 0
x[5,1,4,1] 0
x[5,1,4,2] 0
x[5,1,4,3] 0
x[5,1,5,0] 0
x[5,1,5,1] 0
x[5,1,5,2] 0
x[5,1,5,3] 1
x[5,1,6,0] 0
x[5,1,6,1] 0
x[5,1,6,2] 1
x[5,1,6,3] 1
x[5,1,7,0] 1
x[5,1,7,1] 0
x[5,1,7,2] 0
x[5,1,7,3] 0
x[5,2,0,0] 0
x[5,2,0,1] 0
x[5,2,0,2] 0
x[5,2,0,3] 0
x[5,2,1,0] 0
x[5,2,1,1] 0
x[5,2,1,2] 0
x[5,2,1,3] 0
x[5,2,2,0] 0
x[5,2,2,1] 0
x[5,2,2,2] 0
x[5,2,2,3] 0
x[5,2,3,0] 0
x[5,2,3,1] 0
x[5,2,3,2] 0
x[5,2,3,3] 0
x[5,2,4,0] 0
x[5,2,4,1] 0
x[5,2,4,2] 0
x[5,2,4,3] 0
x[5,2,5,0] 0
x[5,2,5,1] 1
x[5,2,5,2] 0
x[5,2,5,3] 1
x[5,2,6,0] 0
x[5,2,6,1] 0
x[5,2,6,2] 1
x[5,2,6,3] 0
x[5,2,7,0] 1
x[5,2,7,1] 0
x[5,2,7,2] 1
x[5,2,7,3] 0
x[5,3,0,0] 0
x[5,3,0,1] 0
x[5,3,0,2] 0
x[5,3,0,3] 0
x[5,3,1,0] 0
x[5,3,1,1] 0
x[5,3,1,2] 0
x[5,3,1,3] 0
x[5,3,2,0] 0
x[5,3,2,1] 0
x[5,3,2,2] 0
x[5,3,2,3] 0
x[5,3,3,0] 0
x[5,3,3,1] 0
x[5,3,3,2] 0
x[5,3,3,3] 0
x[5,3,4,0] 0
x[5,3,4,1] 0
x[5,3,4,2] 0
x[5,3,4,3] 0
x[5,3,5,0] 0
x[5,3,5,1] 0
x[5,3,5,2] 0
x[5,3,5,3] 0
x[5,3,6,0] 0
x[5,3,6,1] 1
x[5,3,6,2] 0
x[5,3,6,3] 0
x[5,3,7,0] 1
x[5,3,7,1] 0
x[5,3,7,2] 1
x[5,3,7,3] 1
x[6,0,0,0] 0
x[6,0,0,1] 0
x[6,0,0,2] 0
x[6,0,0,3] 0
x[6,0,1,0] 0
x[6,0,1,1] 0
x[6,0,1,2] 0
x[6,0,1,3] 0
x[6,0,2,0] 0
x[6,0,2,1] 0
x[6,0,2,2] 0
x[6,0,2,3] 0
x[6,0,3,0] 0
x[6,0,3,1] 0
x[6,0,3,2] 0
x[6,0,3,3] 0
x[6,0,4,0] 0
x[6,0,4,1] 0
x[6,0,4,2] 0
x[6,0,4,3] 0
x[6,0,5,0] 0
x[6,0,5,1] 0
x[6,0,5,2] 0
x[6,0,5,3] 0
x[6,0,6,0] 0
x[6,0,6,1] 1
x[6,0,6,2] 0
x[6,0,6,3] 0
x[6,0,7,0] 0
x[6,0,7,1] 0
x[6,0,7,2] 0
x[6,0,7,3] 0
x[6,1,0,0] 0
x[6,1,0,1] 0
x[6,1,0,2] 0
x[6,1,0,3] 0
x[6,1,1,0] 0
x[6,1,1,1] 0
x[6,1,1,2] 0
x[6,1,1,3] 0
x[6,1,2,0] 0
x[6,1,2,1] 0
x[6,1,2,2] 0
x[6,1,2,3] 0
x[6,1,3,0] 0
x[6,1,3,1] 0
x[6,1,3,2] 0
x[6,1,3,3] 0
x[6,1,4,0] 0
x[6,1,4,1] 0
x[6,1,4,2] 0
x[6,1,4,3] 0
x[6,1,5,0] 0
x[6,1,5,1] 0
x[6,1,5,2] 0
x[6,1,5,3] 0
x[6,1,6,0] 0
x[6,1,6,1] 0
x[6,1,6,2] 1
x[6,1,6,3] 0
x[6,1,7,0] 0
x[6,1,7,1] 0
x[6,1,7,2] 0
x[6,1,7,3] 0
x[6,2,0,0] 0
x[6,2,0,1] 0
x[6,2,0,2] 0
x[6,2,0,3] 0
x[6,2,1,0] 0
x[6,2,1,1] 0
x[6,2,1,2] 0
x[6,2,1,3] 0
x[6,2,2,0] 0
x[6,2,2,1] 0
x[6,2,2,2] 0
x[6,2,2,3] 0
x[6,2,3,0] 0
x[6,2,3,1] 0
x[6,2,3,2] 0
x[6,2,3,3] 0
x[6,2,4,0] 0
x[6,2,4,1] 0
x[6,2,4,2] 0
x[6,2,4,3] 0
x[6,2,5,0] 0
x[6,2,5,1] 0
x[6,2,5,2] 0
x[6,2,5,3] 0
x[6,2,6,0] 1
x[6,2,6,1] 0
x[6,2,6,2] 0
x[6,2,6,3] 0
x[6,2,7,0] 0
x[6,2,7,1] 1
x[6,2,7,2] 0
x[6,2,7,3] 0
x[6,3,0,0] 0
x[6,3,0,1] 0
x[6,3,0,2] 0
x[6,3,0,3] 0
x[6,3,1,0] 0
x[6,3,1,1] 0
x[6,3,1,2] 0
x[6,3,1,3] 0
x[6,3,2,0] 0
x[6,3,2,1] 0
x[6,3,2,2] 0
x[6,3,2,3] 0
x[6,3,3,0] 0
x[6,3,3,1] 0
x[6,3,3,2] 0
x[6,3,3,3] 0
x[6,3,4,0] 0
x[6,3,4,1] 0
x[6,3,4,2] 0
x[6,3,4,3] 0
x[6,3,5,0] 0
x[6,3,5,1] 0
x[6,3,5,2] 0
x[6,3,5,3] 0
x[6,3,6,0] 1
x[6,3,6,1] 1
x[6,3,6,2] 1
x[6,3,6,3] 0
x[6,3,7,0] 1
x[6,3,7,1] 0
x[6,3,7,2] 0
x[6,3,7,3] 1
x[7,0,0,0] 0
x[7,0,0,1] 0
x[7,0,0,2] 0
x[7,0,0,3] 0
x[7,0,1,0] 0
x[7,0,1,1] 0
x[7,0,1,2] 0
x[7,0,1,3] 0
x[7,0,2,0] 0
x[7,0,2,1] 0
x[7,0,2,2] 0
x[7,0,2,3] 0
x[7,0,3,0] 0
x[7,0,3,1] 0
x[7,0,3,2] 0
x[7,0,3,3] 0
x[7,0,4,0] 0
x[7,0,4,1] 0
x[7,0,4,2] 0
x[7,0,4,3] 0
x[7,0,5,0] 0
x[7,0,5,1] 0
x[7,0,5,2] 0
x[7,0,5,3] 0
x[7,0,6,0] 0
x[7,0,6,1] 0
x[7,0,6,2] 0
x[7,0,6,3] 0
x[7,0,7,0] 0
x[7,0,7,1] 0
x[7,0,7,2] 1
x[7,0,7,3] 1
x[7,1,0,0] 0
x[7,1,0,1] 0
x[7,1,0,2] 0
x[7,1,0,3] 0
x[7,1,1,0] 0
x[7,1,1,1] 0
x[7,1,1,2] 0
x[7,1,1,3] 0
x[7,1,2,0] 0
x[7,1,2,1] 0
x[7,1,2,2] 0
x[7,1,2,3] 0
x[7,1,3,0] 0
x[7,1,3,1] 0
x[7,1,3,2] 0
x[7,1,3,3] 0
x[7,1,4,0] 0
x[7,1,4,1] 0
x[7,1,4,2] 0
x[7,1,4,3] 0
x[7,1,5,0] 0
x[7,1,5,1] 0
x[7,1,5,2] 0
x[7,1,5,3] 0
x[7,1,6,0] 0
x[7,1,6,1] 0
x[7,1,6,2] 0
x[7,1,6,3] 0
x[7,1,7,0] 1
x[7,1,7,1] 0
x[7,1,7,2] 0
x[7,1,7,3] 0
x[7,2,0,0] 0
x[7,2,0,1] 0
x[7,2,0,2] 0
x[7,2,0,3] 0
x[7,2,1,0] 0
x[7,2,1,1] 0
x[7,2,1,2] 0
x[7,2,1,3] 0
x[7,2,2,0] 0
x[7,2,2,1] 0
x[7,2,2,2] 0
x[7,2,2,3] 0
x[7,2,3,0] 0
x[7,2,3,1] 0
x[7,2,3,2] 0
x[7,2,3,3] 0
x[7,2,4,0] 0
x[7,2,4,1] 0
x[7,2,4,2] 0
x[7,2,4,3] 0
x[7,2,5,0] 0
x[7,2,5,1] 0
x[7,2,5,2] 0
x[7,2,5,3] 0
x[7,2,6,0] 0
x[7,2,6,1] 0
x[7,2,6,2] 0
x[7,2,6,3] 0
x[7,2,7,0] 0
x[7,2,7,1] 1
x[7,2,7,2] 0
x[7,2,7,3] 0
x[7,3,0,0] 0
x[7,3,0,1] 0
x[7,3,0,2] 0
x[7,3,0,3] 0
x[7,3,1,0] 0
x[7,3,1,1] 0
x[7,3,1,2] 0
x[7,3,1,3] 0
x[7,3,2,0] 0
x[7,3,2,1] 0
x[7,3,2,2] 0
x[7,3,2,3] 0
x[7,3,3,0] 0
x[7,3,3,1] 0
x[7,3,3,2] 0
x[7,3,3,3] 0
x[7,3,4,0] 0
x[7,3,4,1] 0
x[7,3,4,2] 0
x[7,3,4,3] 0
x[7,3,5,0] 0
x[7,3,5,1] 0
x[7,3,5,2] 0
x[7,3,5,3] 0
x[7,3,6,0] 0
x[7,3,6,1] 0
x[7,3,6,2] 0
x[7,3,6,3] 0
x[7,3,7,0] 0
x[7,3,7,1] 1
x[7,3,7,2] 0
x[7,3,7,3] 0
s[0,0,2] 0
s[0,0,3] 0
s[0,0,4] 3.1999999999999950e+01
s[0,1,1] 0
s[0,1,4] 0
s[0,1,6] 2.8999999999998266e+01
s[0,2,0] 0
s[0,2,1] 0
s[0,2,2] 2.0999999999995872e+01
s[0,3,2] 0
s[0,3,4] 0
s[0,3,6] 7.9999999999997478e+00
s[1,0,1] 1.9999999999999687e+01
s[1,0,4] 0
s[1,0,5] 0
s[1,1,0] 0
s[1,1,2] 0
s[1,1,5] 3
s[1,2,2] 0
s[1,2,5] 0
s[1,2,6] 2.9999999999998863e+00
s[1,3,0] 1.7999999999999687e+01
s[1,3,3] 0
s[1,3,4] 0
s[2,0,2] 0
s[2,0,3] 1.9999999999999979e+01
s[2,0,6] 0
s[2,1,1] 0
s[2,1,4] 1.5999999999999980e+01
s[2,1,5] 0
s[2,2,3] 7.9999999999993179e+00
s[2,2,4] 0
s[2,2,5] 0
s[2,3,2] 1
s[2,3,4] 0
s[2,3,6] 0
s[3,0,0] 2.1999999999999687e+01
s[3,0,4] 0
s[3,0,6] 0
s[3,1,0] 0
s[3,1,3] 0
s[3,1,5] 9.9999999999996589e+00
s[3,2,0] 0
s[3,2,5] 0
s[3,2,6] 1.6999999999999176e+01
s[3,3,2] 0
s[3,3,3] 0
s[3,3,4] 8
s[4,0,1] 0
s[4,0,2] 0
s[4,0,5] 1.7999999999999659e+01
s[4,1,0] 2.9999999999998863e+00
s[4,1,1] 0
s[4,1,5] 0
s[4,2,1] 1.2999999999995296e+01
s[4,2,4] 0
s[4,2,5] 0
s[4,3,1] 9.9999999999988631e-01
s[4,3,4] 0
s[4,3,6] 0
s[5,0,0] 0
s[5,0,3] 4.1999999999999687e+01
s[5,0,5] 0
s[5,1,2] 0
s[5,1,3] 3.1999999999998010e+01
s[5,1,4] 0
s[5,2,0] 3.9999999999999687e+01
s[5,2,2] 0
s[5,2,4] 0
s[5,3,0] 2.7999999999998522e+01
s[5,3,2] 0
s[5,3,5] 0
s[6,0,2] 8.9999999999993179e+00
s[6,0,4] 0
s[6,0,6] 0
s[6,1,1] 7
s[6,1,4] 0
s[6,1,5] 0
s[6,2,2] 0
s[6,2,3] 0
s[6,2,4] 9.9999999999988631e-01
s[6,3,0] 0
s[6,3,3] 1.9999999999998863e+00
s[6,3,4] 0
s[7,0,1] 0
s[7,0,2] 2.6999999999999979e+01
s[7,0,4] 0
s[7,1,1] 0
s[7,1,2] 0
s[7,1,5] 2.2999999999999659e+01
s[7,2,0] 7.9999999999996874e+00
s[7,2,1] 0
s[7,2,6] 0
s[7,3,2] 0
s[7,3,4] 2.4999999999999979e+01
s[7,3,5] 0
Z_FO 215
